n_res = 4;
rc = [ 41, 23, 32, 32 ];
n_tasks = 30;
d = [ 1, 3, 5, 4, 2, 5, 10, 8, 4, 9, 6, 4, 9, 2, 3, 8, 5, 5, 9, 7, 6, 10, 9, 8, 1, 9, 3, 9, 2, 7 ];
rr = [| 41, 41, 41, 41, 41, 41, 41, 41, 41, 41, 41, 41, 41, 41, 41, 41, 41, 41, 41, 41, 41, 41, 41, 41, 41, 41, 41, 41, 41, 41
      | 23, 23, 23, 23, 23, 23, 23, 23, 23, 23, 23, 23, 23, 23, 23, 23, 23, 23, 23, 23, 23, 23, 23, 23, 23, 23, 23, 23, 23, 23
      | 32, 32, 32, 32, 32, 32, 32, 32, 32, 32, 32, 32, 32, 32, 32, 32, 32, 32, 32, 32, 32, 32, 32, 32, 32, 32, 32, 32, 32, 32
      | 32, 32, 32, 32, 32, 32, 32, 32, 32, 32, 32, 32, 32, 32, 32, 32, 32, 32, 32, 32, 32, 32, 32, 32, 32, 32, 32, 32, 32, 32|];
suc = [ { 5, 11 },
       { 4, 8, 28 },
       { 6, 19, 23 },
       { 7, 24 },
       { 12, 18, 29 },
       { 10, 21 },
       { 9, 19, 25 },
       { 20 },
       { 13, 22 },
       { 15, 17, 18 },
       { 12, 23 },
       { 14, 16, 21 },
       { 14, 16, 18 },
       { 15, 20 },
       { 30 },
       { 20, 26 },
       { 22, 24, 25 },
       { 27 },
       { 21, 29 },
       { 30 },
       { 22 },
       { 27 },
       { 24, 26 },
       { 29 },
       { 26 },
       { 27 },
       { 30 },
       {  },
       {  },
       {  } ];
